NAME : amz1405.80145_77145.tour
COMMENT : Cost = 80145_77145
COMMENT : Found by LKH-AMZ [Keld Helsgaun] Sun May 11 13:11:21 2025
COMMENT : TW viol.: 0 #: 0
TYPE : TOUR
DIMENSION : 95
TOUR_SECTION
35
51
80
86
22
92
56
70
18
42
43
33
14
13
85
76
31
58
81
2
72
74
6
61
39
45
30
25
95
50
3
29
17
7
19
78
57
4
75
73
1
91
9
87
41
84
88
21
67
36
71
66
34
90
48
40
69
55
15
32
38
60
23
65
5
89
77
11
68
93
53
20
12
8
94
63
59
79
82
16
62
28
49
26
24
64
44
83
52
46
27
10
47
37
54
-1
EOF
